NAME 
OBJSENSE MAX
ROWS
 N  OBJ
 L  packing[0]
 L  packing[1]
 L  packing[2]
 L  packing[3]
 L  packing[4]
 L  packing[5]
 L  packing[6]
 L  packing[7]
 L  packing[8]
 L  packing[9]
 L  packing[10]
 L  packing[11]
 L  packing[12]
 L  packing[13]
 L  packing[14]
 L  packing[15]
 L  packing[16]
 L  packing[17]
 L  packing[18]
 L  packing[19]
 L  packing[20]
 L  packing[21]
 L  packing[22]
 L  packing[23]
 L  packing[24]
 L  packing[25]
 L  packing[26]
 L  packing[27]
 L  packing[28]
 L  packing[29]
 L  packing[30]
 L  packing[31]
 L  packing[32]
 L  packing[33]
 L  packing[34]
 L  packing[35]
 L  packing[36]
 L  packing[37]
 L  packing[38]
 L  packing[39]
 L  packing[40]
 L  packing[41]
 L  packing[42]
 L  packing[43]
 L  packing[44]
 L  packing[45]
 L  packing[46]
 L  packing[47]
 L  packing[48]
 L  packing[49]
 L  R51     
COLUMNS
    MARKER    'MARKER'                 'INTORG'
    x[1]      OBJ       198
    x[1]      packing[0]  11
    x[1]      packing[1]  102
    x[1]      packing[2]  108
    x[1]      packing[3]  29
    x[1]      packing[4]  19
    x[1]      packing[5]  199
    x[1]      packing[6]  3
    x[1]      packing[7]  160
    x[1]      packing[8]  44
    x[1]      packing[10]  171
    x[1]      packing[11]  197
    x[1]      packing[12]  139
    x[1]      packing[14]  15
    x[1]      packing[16]  46
    x[1]      packing[17]  121
    x[1]      packing[18]  96
    x[1]      packing[19]  125
    x[1]      packing[20]  187
    x[1]      packing[21]  64
    x[1]      packing[23]  189
    x[1]      packing[25]  50
    x[1]      packing[26]  169
    x[1]      packing[27]  126
    x[1]      packing[28]  72
    x[1]      packing[29]  80
    x[1]      packing[31]  163
    x[1]      packing[32]  174
    x[1]      packing[33]  170
    x[1]      packing[34]  150
    x[1]      packing[36]  149
    x[1]      packing[37]  17
    x[1]      packing[38]  23
    x[1]      packing[39]  157
    x[1]      packing[40]  155
    x[1]      packing[41]  151
    x[1]      packing[42]  28
    x[1]      packing[43]  78
    x[1]      packing[44]  196
    x[1]      packing[45]  91
    x[1]      packing[47]  76
    x[1]      packing[48]  181
    x[1]      packing[49]  192
    x[1]      R51       1
    x[2]      OBJ       98
    x[2]      packing[0]  29
    x[2]      packing[1]  10
    x[2]      packing[2]  181
    x[2]      packing[3]  174
    x[2]      packing[4]  107
    x[2]      packing[5]  177
    x[2]      packing[8]  196
    x[2]      packing[9]  41
    x[2]      packing[11]  118
    x[2]      packing[12]  18
    x[2]      packing[13]  102
    x[2]      packing[14]  60
    x[2]      packing[15]  107
    x[2]      packing[16]  135
    x[2]      packing[17]  85
    x[2]      packing[18]  106
    x[2]      packing[20]  97
    x[2]      packing[21]  197
    x[2]      packing[23]  150
    x[2]      packing[24]  103
    x[2]      packing[25]  155
    x[2]      packing[27]  151
    x[2]      packing[28]  169
    x[2]      packing[30]  70
    x[2]      packing[31]  189
    x[2]      packing[32]  46
    x[2]      packing[33]  176
    x[2]      packing[34]  196
    x[2]      packing[36]  67
    x[2]      packing[37]  97
    x[2]      packing[38]  195
    x[2]      packing[39]  63
    x[2]      packing[40]  57
    x[2]      packing[41]  177
    x[2]      packing[42]  142
    x[2]      packing[43]  59
    x[2]      packing[44]  8
    x[2]      packing[46]  197
    x[2]      packing[47]  43
    x[2]      packing[48]  129
    x[2]      packing[49]  3
    x[3]      OBJ       50
    x[3]      packing[0]  177
    x[3]      packing[2]  114
    x[3]      packing[4]  129
    x[3]      packing[8]  116
    x[3]      packing[11]  187
    x[3]      packing[13]  20
    x[3]      packing[14]  157
    x[3]      packing[15]  47
    x[3]      packing[17]  1
    x[3]      packing[18]  140
    x[3]      packing[20]  2
    x[3]      packing[21]  21
    x[3]      packing[22]  129
    x[3]      packing[23]  107
    x[3]      packing[24]  2
    x[3]      packing[25]  191
    x[3]      packing[26]  174
    x[3]      packing[27]  165
    x[3]      packing[28]  132
    x[3]      packing[29]  5
    x[3]      packing[30]  141
    x[3]      packing[31]  83
    x[3]      packing[32]  127
    x[3]      packing[33]  190
    x[3]      packing[36]  95
    x[3]      packing[37]  168
    x[3]      packing[38]  46
    x[3]      packing[39]  110
    x[3]      packing[40]  25
    x[3]      packing[41]  4
    x[3]      packing[42]  142
    x[3]      packing[44]  150
    x[3]      packing[45]  103
    x[3]      packing[46]  112
    x[3]      packing[47]  155
    x[3]      packing[49]  94
    x[4]      OBJ       41
    x[4]      packing[0]  144
    x[4]      packing[1]  128
    x[4]      packing[2]  17
    x[4]      packing[3]  77
    x[4]      packing[5]  66
    x[4]      packing[6]  192
    x[4]      packing[7]  193
    x[4]      packing[8]  49
    x[4]      packing[9]  174
    x[4]      packing[10]  72
    x[4]      packing[11]  64
    x[4]      packing[15]  20
    x[4]      packing[17]  83
    x[4]      packing[18]  46
    x[4]      packing[19]  52
    x[4]      packing[20]  26
    x[4]      packing[21]  182
    x[4]      packing[22]  141
    x[4]      packing[23]  75
    x[4]      packing[24]  45
    x[4]      packing[25]  54
    x[4]      packing[26]  69
    x[4]      packing[27]  72
    x[4]      packing[28]  124
    x[4]      packing[29]  93
    x[4]      packing[30]  139
    x[4]      packing[31]  13
    x[4]      packing[32]  108
    x[4]      packing[34]  133
    x[4]      packing[35]  134
    x[4]      packing[36]  73
    x[4]      packing[37]  35
    x[4]      packing[38]  190
    x[4]      packing[39]  120
    x[4]      packing[40]  169
    x[4]      packing[43]  49
    x[4]      packing[44]  132
    x[4]      packing[45]  138
    x[4]      packing[48]  184
    x[4]      packing[49]  40
    x[5]      OBJ       15
    x[5]      packing[0]  51
    x[5]      packing[2]  69
    x[5]      packing[3]  155
    x[5]      packing[4]  138
    x[5]      packing[5]  67
    x[5]      packing[6]  88
    x[5]      packing[8]  142
    x[5]      packing[9]  169
    x[5]      packing[10]  111
    x[5]      packing[11]  132
    x[5]      packing[13]  173
    x[5]      packing[14]  6
    x[5]      packing[15]  57
    x[5]      packing[16]  15
    x[5]      packing[17]  189
    x[5]      packing[18]  5
    x[5]      packing[19]  146
    x[5]      packing[20]  40
    x[5]      packing[21]  140
    x[5]      packing[22]  132
    x[5]      packing[24]  65
    x[5]      packing[25]  36
    x[5]      packing[28]  199
    x[5]      packing[29]  42
    x[5]      packing[30]  149
    x[5]      packing[31]  127
    x[5]      packing[32]  50
    x[5]      packing[33]  138
    x[5]      packing[34]  98
    x[5]      packing[36]  173
    x[5]      packing[37]  21
    x[5]      packing[39]  156
    x[5]      packing[40]  185
    x[5]      packing[43]  104
    x[5]      packing[44]  44
    x[5]      packing[45]  66
    x[5]      packing[46]  88
    x[5]      packing[47]  178
    x[5]      packing[48]  79
    x[5]      packing[49]  36
    x[6]      OBJ       8
    x[6]      packing[0]  57
    x[6]      packing[1]  128
    x[6]      packing[4]  119
    x[6]      packing[5]  38
    x[6]      packing[6]  96
    x[6]      packing[7]  15
    x[6]      packing[8]  158
    x[6]      packing[9]  142
    x[6]      packing[11]  56
    x[6]      packing[12]  183
    x[6]      packing[15]  76
    x[6]      packing[17]  74
    x[6]      packing[18]  187
    x[6]      packing[19]  26
    x[6]      packing[20]  52
    x[6]      packing[21]  76
    x[6]      packing[22]  93
    x[6]      packing[23]  20
    x[6]      packing[27]  104
    x[6]      packing[28]  193
    x[6]      packing[29]  92
    x[6]      packing[31]  185
    x[6]      packing[32]  101
    x[6]      packing[34]  148
    x[6]      packing[38]  130
    x[6]      packing[39]  16
    x[6]      packing[40]  117
    x[6]      packing[42]  4
    x[6]      packing[43]  30
    x[6]      packing[44]  111
    x[6]      packing[46]  90
    x[6]      packing[47]  174
    x[6]      packing[48]  87
    x[6]      packing[49]  20
    x[7]      OBJ       132
    x[7]      packing[0]  152
    x[7]      packing[1]  112
    x[7]      packing[3]  41
    x[7]      packing[4]  130
    x[7]      packing[5]  56
    x[7]      packing[6]  141
    x[7]      packing[8]  193
    x[7]      packing[9]  160
    x[7]      packing[10]  109
    x[7]      packing[12]  55
    x[7]      packing[13]  63
    x[7]      packing[14]  47
    x[7]      packing[16]  56
    x[7]      packing[17]  52
    x[7]      packing[19]  105
    x[7]      packing[20]  176
    x[7]      packing[21]  71
    x[7]      packing[22]  182
    x[7]      packing[23]  5
    x[7]      packing[24]  155
    x[7]      packing[25]  179
    x[7]      packing[26]  16
    x[7]      packing[28]  117
    x[7]      packing[32]  170
    x[7]      packing[37]  199
    x[7]      packing[38]  179
    x[7]      packing[39]  10
    x[7]      packing[40]  8
    x[7]      packing[41]  139
    x[7]      packing[42]  161
    x[7]      packing[44]  106
    x[7]      packing[45]  164
    x[7]      packing[48]  80
    x[8]      OBJ       102
    x[8]      packing[0]  181
    x[8]      packing[1]  191
    x[8]      packing[4]  81
    x[8]      packing[5]  88
    x[8]      packing[6]  103
    x[8]      packing[7]  25
    x[8]      packing[8]  9
    x[8]      packing[9]  81
    x[8]      packing[11]  164
    x[8]      packing[12]  20
    x[8]      packing[14]  125
    x[8]      packing[15]  27
    x[8]      packing[16]  119
    x[8]      packing[17]  142
    x[8]      packing[18]  155
    x[8]      packing[20]  126
    x[8]      packing[21]  125
    x[8]      packing[22]  194
    x[8]      packing[23]  86
    x[8]      packing[24]  48
    x[8]      packing[25]  43
    x[8]      packing[26]  103
    x[8]      packing[27]  184
    x[8]      packing[28]  141
    x[8]      packing[29]  100
    x[8]      packing[30]  163
    x[8]      packing[31]  8
    x[8]      packing[32]  100
    x[8]      packing[34]  12
    x[8]      packing[35]  16
    x[8]      packing[36]  84
    x[8]      packing[39]  34
    x[8]      packing[40]  52
    x[8]      packing[41]  143
    x[8]      packing[42]  125
    x[8]      packing[43]  82
    x[8]      packing[44]  148
    x[8]      packing[45]  20
    x[8]      packing[46]  178
    x[8]      packing[47]  33
    x[8]      packing[48]  136
    x[8]      packing[49]  13
    x[9]      OBJ       9
    x[9]      packing[1]  179
    x[9]      packing[2]  25
    x[9]      packing[3]  104
    x[9]      packing[5]  81
    x[9]      packing[8]  44
    x[9]      packing[10]  29
    x[9]      packing[11]  80
    x[9]      packing[12]  18
    x[9]      packing[14]  151
    x[9]      packing[15]  193
    x[9]      packing[17]  60
    x[9]      packing[18]  73
    x[9]      packing[19]  96
    x[9]      packing[21]  27
    x[9]      packing[22]  129
    x[9]      packing[23]  97
    x[9]      packing[24]  108
    x[9]      packing[25]  172
    x[9]      packing[26]  123
    x[9]      packing[27]  22
    x[9]      packing[28]  99
    x[9]      packing[29]  192
    x[9]      packing[30]  123
    x[9]      packing[31]  184
    x[9]      packing[32]  131
    x[9]      packing[33]  40
    x[9]      packing[34]  67
    x[9]      packing[35]  33
    x[9]      packing[38]  45
    x[9]      packing[39]  85
    x[9]      packing[40]  189
    x[9]      packing[42]  36
    x[9]      packing[44]  45
    x[9]      packing[45]  64
    x[9]      packing[46]  195
    x[9]      packing[47]  166
    x[10]     OBJ       165
    x[10]     packing[1]  128
    x[10]     packing[3]  167
    x[10]     packing[4]  23
    x[10]     packing[6]  157
    x[10]     packing[7]  64
    x[10]     packing[8]  134
    x[10]     packing[9]  82
    x[10]     packing[10]  36
    x[10]     packing[11]  89
    x[10]     packing[12]  40
    x[10]     packing[13]  124
    x[10]     packing[14]  157
    x[10]     packing[15]  109
    x[10]     packing[16]  122
    x[10]     packing[17]  154
    x[10]     packing[18]  119
    x[10]     packing[19]  186
    x[10]     packing[20]  149
    x[10]     packing[21]  150
    x[10]     packing[22]  1
    x[10]     packing[23]  42
    x[10]     packing[24]  183
    x[10]     packing[25]  144
    x[10]     packing[26]  125
    x[10]     packing[28]  86
    x[10]     packing[30]  27
    x[10]     packing[33]  27
    x[10]     packing[34]  137
    x[10]     packing[35]  28
    x[10]     packing[36]  116
    x[10]     packing[37]  191
    x[10]     packing[38]  168
    x[10]     packing[40]  150
    x[10]     packing[42]  34
    x[10]     packing[43]  103
    x[10]     packing[44]  143
    x[10]     packing[45]  128
    x[10]     packing[46]  32
    x[10]     packing[47]  47
    x[10]     packing[48]  183
    x[10]     packing[49]  26
    x[11]     OBJ       142
    x[11]     packing[0]  197
    x[11]     packing[1]  196
    x[11]     packing[3]  32
    x[11]     packing[4]  164
    x[11]     packing[6]  183
    x[11]     packing[7]  66
    x[11]     packing[8]  35
    x[11]     packing[11]  28
    x[11]     packing[12]  111
    x[11]     packing[13]  87
    x[11]     packing[14]  136
    x[11]     packing[15]  90
    x[11]     packing[16]  190
    x[11]     packing[19]  112
    x[11]     packing[20]  143
    x[11]     packing[22]  86
    x[11]     packing[23]  143
    x[11]     packing[26]  151
    x[11]     packing[28]  21
    x[11]     packing[29]  76
    x[11]     packing[30]  114
    x[11]     packing[31]  46
    x[11]     packing[32]  158
    x[11]     packing[33]  67
    x[11]     packing[34]  28
    x[11]     packing[36]  194
    x[11]     packing[37]  175
    x[11]     packing[38]  21
    x[11]     packing[39]  1
    x[11]     packing[40]  113
    x[11]     packing[42]  132
    x[11]     packing[44]  118
    x[11]     packing[45]  41
    x[11]     packing[46]  126
    x[11]     packing[47]  23
    x[11]     packing[49]  99
    x[12]     OBJ       145
    x[12]     packing[0]  16
    x[12]     packing[1]  28
    x[12]     packing[2]  16
    x[12]     packing[3]  129
    x[12]     packing[4]  188
    x[12]     packing[6]  48
    x[12]     packing[7]  26
    x[12]     packing[8]  153
    x[12]     packing[9]  99
    x[12]     packing[10]  55
    x[12]     packing[11]  93
    x[12]     packing[12]  180
    x[12]     packing[13]  127
    x[12]     packing[14]  88
    x[12]     packing[16]  83
    x[12]     packing[17]  8
    x[12]     packing[18]  49
    x[12]     packing[19]  46
    x[12]     packing[20]  145
    x[12]     packing[21]  184
    x[12]     packing[22]  91
    x[12]     packing[23]  13
    x[12]     packing[24]  129
    x[12]     packing[25]  36
    x[12]     packing[28]  170
    x[12]     packing[30]  55
    x[12]     packing[31]  147
    x[12]     packing[32]  40
    x[12]     packing[34]  126
    x[12]     packing[35]  132
    x[12]     packing[36]  40
    x[12]     packing[38]  66
    x[12]     packing[39]  82
    x[12]     packing[40]  92
    x[12]     packing[41]  26
    x[12]     packing[43]  25
    x[12]     packing[44]  98
    x[12]     packing[45]  107
    x[12]     packing[46]  89
    x[12]     packing[48]  147
    x[13]     OBJ       79
    x[13]     packing[1]  167
    x[13]     packing[2]  2
    x[13]     packing[3]  179
    x[13]     packing[4]  82
    x[13]     packing[5]  122
    x[13]     packing[7]  160
    x[13]     packing[8]  71
    x[13]     packing[9]  57
    x[13]     packing[10]  54
    x[13]     packing[11]  61
    x[13]     packing[13]  60
    x[13]     packing[14]  62
    x[13]     packing[15]  56
    x[13]     packing[16]  25
    x[13]     packing[17]  28
    x[13]     packing[18]  1
    x[13]     packing[20]  142
    x[13]     packing[21]  22
    x[13]     packing[22]  78
    x[13]     packing[23]  115
    x[13]     packing[24]  94
    x[13]     packing[26]  155
    x[13]     packing[28]  97
    x[13]     packing[29]  8
    x[13]     packing[30]  119
    x[13]     packing[31]  155
    x[13]     packing[33]  82
    x[13]     packing[34]  35
    x[13]     packing[35]  52
    x[13]     packing[37]  4
    x[13]     packing[38]  163
    x[13]     packing[39]  143
    x[13]     packing[41]  89
    x[13]     packing[43]  32
    x[13]     packing[44]  45
    x[13]     packing[45]  144
    x[13]     packing[46]  3
    x[13]     packing[47]  83
    x[13]     packing[48]  99
    x[13]     packing[49]  3
    x[14]     OBJ       94
    x[14]     packing[0]  64
    x[14]     packing[1]  184
    x[14]     packing[2]  57
    x[14]     packing[3]  80
    x[14]     packing[5]  119
    x[14]     packing[6]  77
    x[14]     packing[7]  115
    x[14]     packing[8]  55
    x[14]     packing[9]  4
    x[14]     packing[10]  138
    x[14]     packing[11]  132
    x[14]     packing[12]  193
    x[14]     packing[13]  170
    x[14]     packing[15]  91
    x[14]     packing[16]  114
    x[14]     packing[18]  199
    x[14]     packing[19]  74
    x[14]     packing[20]  26
    x[14]     packing[22]  148
    x[14]     packing[23]  161
    x[14]     packing[24]  72
    x[14]     packing[25]  197
    x[14]     packing[27]  168
    x[14]     packing[28]  33
    x[14]     packing[29]  150
    x[14]     packing[30]  191
    x[14]     packing[31]  29
    x[14]     packing[32]  20
    x[14]     packing[35]  76
    x[14]     packing[37]  26
    x[14]     packing[38]  150
    x[14]     packing[39]  122
    x[14]     packing[41]  36
    x[14]     packing[42]  85
    x[14]     packing[43]  82
    x[14]     packing[44]  34
    x[14]     packing[46]  30
    x[14]     packing[47]  76
    x[14]     packing[49]  182
    x[14]     R51       1
    x[15]     OBJ       3
    x[15]     packing[0]  126
    x[15]     packing[1]  168
    x[15]     packing[2]  27
    x[15]     packing[3]  72
    x[15]     packing[5]  107
    x[15]     packing[7]  165
    x[15]     packing[9]  2
    x[15]     packing[10]  42
    x[15]     packing[12]  197
    x[15]     packing[13]  189
    x[15]     packing[14]  189
    x[15]     packing[15]  43
    x[15]     packing[18]  73
    x[15]     packing[20]  82
    x[15]     packing[21]  7
    x[15]     packing[22]  42
    x[15]     packing[23]  130
    x[15]     packing[24]  103
    x[15]     packing[25]  168
    x[15]     packing[27]  94
    x[15]     packing[31]  79
    x[15]     packing[32]  56
    x[15]     packing[33]  68
    x[15]     packing[34]  123
    x[15]     packing[36]  169
    x[15]     packing[37]  173
    x[15]     packing[38]  131
    x[15]     packing[39]  177
    x[15]     packing[40]  131
    x[15]     packing[41]  110
    x[15]     packing[42]  161
    x[15]     packing[44]  28
    x[15]     packing[45]  50
    x[15]     packing[47]  191
    x[15]     packing[48]  163
    x[15]     packing[49]  53
    x[16]     OBJ       111
    x[16]     packing[1]  143
    x[16]     packing[2]  134
    x[16]     packing[3]  152
    x[16]     packing[4]  35
    x[16]     packing[7]  116
    x[16]     packing[10]  94
    x[16]     packing[11]  34
    x[16]     packing[12]  180
    x[16]     packing[14]  194
    x[16]     packing[15]  137
    x[16]     packing[17]  34
    x[16]     packing[18]  165
    x[16]     packing[19]  39
    x[16]     packing[20]  111
    x[16]     packing[21]  133
    x[16]     packing[22]  84
    x[16]     packing[23]  80
    x[16]     packing[24]  106
    x[16]     packing[25]  50
    x[16]     packing[26]  194
    x[16]     packing[27]  135
    x[16]     packing[29]  95
    x[16]     packing[31]  164
    x[16]     packing[33]  127
    x[16]     packing[37]  45
    x[16]     packing[38]  109
    x[16]     packing[40]  162
    x[16]     packing[41]  182
    x[16]     packing[42]  20
    x[16]     packing[43]  139
    x[16]     packing[44]  199
    x[16]     packing[45]  107
    x[16]     packing[46]  195
    x[16]     packing[47]  150
    x[17]     OBJ       82
    x[17]     packing[0]  9
    x[17]     packing[1]  31
    x[17]     packing[2]  163
    x[17]     packing[3]  116
    x[17]     packing[5]  110
    x[17]     packing[6]  99
    x[17]     packing[7]  180
    x[17]     packing[8]  13
    x[17]     packing[9]  167
    x[17]     packing[10]  57
    x[17]     packing[11]  181
    x[17]     packing[12]  106
    x[17]     packing[13]  49
    x[17]     packing[14]  184
    x[17]     packing[15]  115
    x[17]     packing[16]  151
    x[17]     packing[17]  79
    x[17]     packing[18]  137
    x[17]     packing[20]  102
    x[17]     packing[21]  18
    x[17]     packing[23]  3
    x[17]     packing[24]  91
    x[17]     packing[25]  77
    x[17]     packing[26]  51
    x[17]     packing[27]  95
    x[17]     packing[28]  174
    x[17]     packing[29]  189
    x[17]     packing[30]  117
    x[17]     packing[31]  174
    x[17]     packing[32]  68
    x[17]     packing[33]  152
    x[17]     packing[34]  189
    x[17]     packing[35]  127
    x[17]     packing[36]  163
    x[17]     packing[37]  101
    x[17]     packing[38]  91
    x[17]     packing[39]  198
    x[17]     packing[40]  112
    x[17]     packing[41]  82
    x[17]     packing[42]  174
    x[17]     packing[43]  80
    x[17]     packing[44]  31
    x[17]     packing[45]  25
    x[17]     packing[47]  138
    x[17]     packing[48]  52
    x[17]     packing[49]  78
    x[18]     OBJ       118
    x[18]     packing[0]  162
    x[18]     packing[1]  147
    x[18]     packing[2]  134
    x[18]     packing[5]  25
    x[18]     packing[7]  71
    x[18]     packing[8]  67
    x[18]     packing[10]  36
    x[18]     packing[12]  118
    x[18]     packing[14]  170
    x[18]     packing[15]  185
    x[18]     packing[17]  12
    x[18]     packing[18]  130
    x[18]     packing[19]  172
    x[18]     packing[21]  146
    x[18]     packing[22]  93
    x[18]     packing[23]  69
    x[18]     packing[24]  156
    x[18]     packing[25]  34
    x[18]     packing[28]  29
    x[18]     packing[29]  8
    x[18]     packing[30]  5
    x[18]     packing[31]  149
    x[18]     packing[34]  60
    x[18]     packing[35]  33
    x[18]     packing[36]  135
    x[18]     packing[37]  94
    x[18]     packing[39]  170
    x[18]     packing[40]  52
    x[18]     packing[41]  107
    x[18]     packing[42]  66
    x[18]     packing[43]  80
    x[18]     packing[44]  61
    x[18]     packing[45]  7
    x[18]     packing[46]  73
    x[18]     packing[48]  59
    x[18]     packing[49]  8
    x[18]     R51       1
    x[19]     OBJ       171
    x[19]     packing[0]  169
    x[19]     packing[1]  119
    x[19]     packing[3]  103
    x[19]     packing[4]  34
    x[19]     packing[5]  109
    x[19]     packing[6]  122
    x[19]     packing[8]  123
    x[19]     packing[9]  14
    x[19]     packing[10]  138
    x[19]     packing[11]  142
    x[19]     packing[13]  188
    x[19]     packing[15]  157
    x[19]     packing[16]  155
    x[19]     packing[17]  176
    x[19]     packing[18]  112
    x[19]     packing[19]  162
    x[19]     packing[20]  188
    x[19]     packing[21]  91
    x[19]     packing[22]  15
    x[19]     packing[23]  46
    x[19]     packing[24]  74
    x[19]     packing[25]  23
    x[19]     packing[26]  23
    x[19]     packing[27]  24
    x[19]     packing[28]  130
    x[19]     packing[32]  42
    x[19]     packing[34]  181
    x[19]     packing[35]  121
    x[19]     packing[38]  147
    x[19]     packing[39]  124
    x[19]     packing[41]  114
    x[19]     packing[43]  192
    x[19]     packing[44]  85
    x[19]     packing[45]  30
    x[19]     packing[46]  94
    x[19]     packing[49]  79
    x[20]     OBJ       177
    x[20]     packing[0]  10
    x[20]     packing[2]  194
    x[20]     packing[3]  112
    x[20]     packing[4]  157
    x[20]     packing[5]  171
    x[20]     packing[8]  33
    x[20]     packing[9]  164
    x[20]     packing[12]  160
    x[20]     packing[13]  6
    x[20]     packing[14]  174
    x[20]     packing[15]  46
    x[20]     packing[16]  129
    x[20]     packing[17]  24
    x[20]     packing[18]  34
    x[20]     packing[19]  148
    x[20]     packing[20]  14
    x[20]     packing[21]  178
    x[20]     packing[23]  103
    x[20]     packing[24]  11
    x[20]     packing[25]  159
    x[20]     packing[28]  104
    x[20]     packing[30]  18
    x[20]     packing[31]  106
    x[20]     packing[32]  106
    x[20]     packing[33]  165
    x[20]     packing[34]  93
    x[20]     packing[36]  168
    x[20]     packing[38]  156
    x[20]     packing[39]  120
    x[20]     packing[40]  12
    x[20]     packing[41]  175
    x[20]     packing[43]  174
    x[20]     packing[44]  136
    x[20]     packing[46]  12
    x[20]     packing[47]  154
    x[20]     packing[48]  64
    x[20]     packing[49]  195
    x[20]     R51       1
    MARKER    'MARKER'                 'INTEND'
RHS
    RHS1      packing[0]  778
    RHS1      packing[1]  1081
    RHS1      packing[2]  621
    RHS1      packing[3]  861
    RHS1      packing[4]  703
    RHS1      packing[5]  768
    RHS1      packing[6]  655
    RHS1      packing[7]  678
    RHS1      packing[8]  818
    RHS1      packing[9]  678
    RHS1      packing[10]  571
    RHS1      packing[11]  879
    RHS1      packing[12]  859
    RHS1      packing[13]  679
    RHS1      packing[14]  958
    RHS1      packing[15]  778
    RHS1      packing[16]  670
    RHS1      packing[17]  661
    RHS1      packing[18]  914
    RHS1      packing[19]  745
    RHS1      packing[20]  904
    RHS1      packing[21]  916
    RHS1      packing[22]  819
    RHS1      packing[23]  817
    RHS1      packing[24]  773
    RHS1      packing[25]  884
    RHS1      packing[26]  677
    RHS1      packing[27]  670
    RHS1      packing[28]  1045
    RHS1      packing[29]  565
    RHS1      packing[30]  716
    RHS1      packing[31]  1001
    RHS1      packing[32]  749
    RHS1      packing[33]  701
    RHS1      packing[34]  888
    RHS1      packing[35]  376
    RHS1      packing[36]  813
    RHS1      packing[37]  673
    RHS1      packing[38]  1005
    RHS1      packing[39]  944
    RHS1      packing[40]  891
    RHS1      packing[41]  768
    RHS1      packing[42]  655
    RHS1      packing[43]  655
    RHS1      packing[44]  959
    RHS1      packing[45]  643
    RHS1      packing[46]  757
    RHS1      packing[47]  844
    RHS1      packing[48]  822
    RHS1      packing[49]  561
    RHS1      R51       3
BOUNDS
 BV BND1      x[1]    
 BV BND1      x[2]    
 BV BND1      x[3]    
 BV BND1      x[4]    
 BV BND1      x[5]    
 BV BND1      x[6]    
 BV BND1      x[7]    
 BV BND1      x[8]    
 BV BND1      x[9]    
 BV BND1      x[10]   
 BV BND1      x[11]   
 BV BND1      x[12]   
 BV BND1      x[13]   
 BV BND1      x[14]   
 BV BND1      x[15]   
 BV BND1      x[16]   
 BV BND1      x[17]   
 BV BND1      x[18]   
 BV BND1      x[19]   
 BV BND1      x[20]   
ENDATA
